unsat
(forall ((A (_ BitVec 512))
         (B (_ BitVec 1))
         (C (_ BitVec 1))
         (D (_ BitVec 1))
         (E (_ BitVec 1))
         (F (_ BitVec 1))
         (G (_ BitVec 1))
         (H (_ BitVec 1))
         (I (_ BitVec 1))
         (J (_ BitVec 279))
         (K (_ BitVec 1))
         (L (_ BitVec 1))
         (M (_ BitVec 1))
         (N (_ BitVec 1))
         (O (_ BitVec 1))
         (P (_ BitVec 1))
         (Q (_ BitVec 2))
         (R (_ BitVec 1)))
  (! (let ((a!1 (and (or (not (= E #b1)) (not (= F #b1)))
                     (or (not ((_ bit2bool 282) A)) (not (= C #b1)))
                     (or (not ((_ bit2bool 283) A)) (= C #b0))
                     (or (not (= D #b1)) (= B #b0)))))
       (= (INV!slice!1 A B C D E F G H I J K L M N O P Q R) a!1))
     :weight 0))
